
  22   10
  10   10   10   10   10   10   10   10   10   10

   0   0   0   0   0   0   0   0   0   0   0   2 2 17 
   8  10  10  10  10  10  10  10  10  10  10   1 3 
   8  10  10  10  10  10  10  10  10  10  10   1 4 
   5  10  10  10  10  10  10  10  10  10  10   1 5 
   6  10  10  10  10  10  10  10  10  10  10   1 6 
   4  10  10  10  10  10  10  10  10  10  10   1 7 
   5  10  10  10  10  10  10  10  10  10  10   1 8 
   9  10  10  10  10  10  10  10  10  10  10   1 9 
  10  10  10  10  10  10  10  10  10  10  10   1 10 
  10  10  10  10  10  10  10  10  10  10  10   1 11 
   8  10  10  10  10  10  10  10  10  10  10   1 12 
   5  10  10  10  10  10  10  10  10  10  10   1 13 
   2  10  10  10  10  10  10  10  10  10  10   1 14 
   4  10  10  10  10  10  10  10  10  10  10   1 15 
   1  10  10  10  10  10  10  10  10  10  10   1 16 
   3  10  10  10  10  10  10  10  10  10  10   1 18 
   1  10  10  10  10  10  10  10  10  10  10   1 18 
   7  10  10  10  10  10  10  10  10  10  10   2 21 19 
   1  10  10  10  10  10  10  10  10  10  10   1 20 
   8  10  10  10  10  10  10  10  10  10  10   1 22
   9  10  10  10  10  10  10  10  10  10  10   1 22
   0   0   0   0   0   0   0   0   0   0   0   0 
